32	4
11	18	14	20
0	0	0	0	0	4	2	3	4	5
5	3	3	1	5	2	6	7
10	5	1	1	7	2	6	7
10	8	1	1	1	2	6	7
3	1	1	7	1	2	6	7
5	3	1	1	7	4	8	9	11	12
8	1	4	6	1	3	8	10	11
10	4	1	1	1	12	13	14	15	16	17	18	19	21	22	23	24	25
4	2	1	6	12	12	13	14	15	16	17	19	20	21	22	23	25	26
3	3	6	1	13	12	13	14	15	16	17	18	19	21	22	23	24	25
4	1	16	1	1	11	13	14	15	16	17	18	20	22	23	24	26
7	5	1	4	3	11	13	14	15	16	17	18	20	22	23	24	26
10	1	3	5	9	3	27	28	29
10	4	7	1	5	3	27	28	29
8	4	7	1	1	3	27	28	29
9	1	1	1	7	3	27	28	29
3	1	11	1	1	3	27	28	29
2	2	8	8	1	3	27	28	29
5	1	16	1	1	3	27	28	29
3	5	1	11	1	3	27	28	29
4	1	1	3	5	3	27	28	29
5	6	4	10	5	2	28	29
10	3	8	6	13	2	27	28
2	1	8	2	1	2	27	28
4	1	6	1	12	2	28	29
9	1	1	2	8	2	27	29
4	5	8	4	1	2	30	31
8	1	6	5	10	1	31
2	4	1	1	1	1	30
4	4	1	9	8	1	32
5	1	1	3	8	1	32
0	0	0	0	0	0
